
  32   50
   9   12   11   11   14   11   19   14   11   14   12   10   11   10   13    7   11   10    8   15   18   11   10    9   16    7    1    8   10   15   15   10    0    0    0    0    0    0    0    0    0    0    0    0    0    0    0    0    0    0

   0   0   0   0   0   0   0   0   0   0   0   0   0   0   0   0   0   0   0   0   0   0   0   0   0   0   0   0   0   0   0   0   0   0   0   0   0   0   0   0   0   0   0   0   0   0   0   0   0   0   0   9 2 3 4 6 7 8 9 17 31 
   3   0   0   0   0   9   0   8   0   0   0   0   0   0   0   0   0   2   0   0   0   0   0   0   0   0   0   0   0   0   6   0   0   0   0   0   0   0   0   0   0   0   0   0   0   0   0   0   0   0   0   6 30 28 20 18 10 5 
   1   0   6   0   0   0   0   0   0   0   0   0   7   0   0   0   0   0  10   0   0   0   3   0   0   0   0   0   0   0   2   0   0   0   0   0   0   0   0   0   0   0   0   0   0   0   0   0   0   0   0   7 30 28 27 18 15 14 10 
  10   4   0   7   0   0   0   9   0   0   0   0   0   0   0   5   0   0   0   0   6   0   0   0   0   0   0   0   0   0   0   0   0   0   0   0   0   0   0   0   0   0   0   0   0   0   0   0   0   0   0   7 28 20 19 18 16 14 13 
   9   0   0   3   0   0   2   0   0   0   0   0   0   4   0   0   6   0   0   0   0   7   0   0   0   9   0   0   7   0   0   0   0   0   0   0   0   0   0   0   0   0   0   0   0   0   0   0   0   0   0   5 27 26 21 15 12 
   8   0   9   0   0   0   0   4   0   0   0   0   0   0   0  10   2   0   0   0   0   0   0   0   0   0   0   0   0   0   0   0   0   0   0   0   0   0   0   0   0   0   0   0   0   0   0   0   0   0   0   5 29 27 26 14 11 
   1   0   0   0   0   0   0   0   0   0   0   0   0   0   0   0   0   0   0   0   0   0   0   0   0   0   0   0   0  10   0   8   0   0   0   0   0   0   0   0   0   0   0   0   0   0   0   0   0   0   0   4 21 20 12 10 
   8   0   0   0   0   0   0   0   8   0   3   0   0   7   0   0   0   0   0   2   0   0   0   0   0   0   0   0   0   0  10   0   0   0   0   0   0   0   0   0   0   0   0   0   0   0   0   0   0   0   0   5 29 26 21 16 14 
   7   0   0   0   0   8  10   4   5   0   0   0   0   3   0   0   0  10   0   0   0   8   0   0   0   0   0   0   0   0   0   8  10   0   0   0   0   0   0   0   0   0   0   0   0   0   0   0   0   0   0   6 28 27 26 23 20 16 
   7   0   2   0   9   0   0   2   0   0   0   0   0   0   0   0   0   0   0   0   0   0   0   7   0   5   0   0   1   4   0   4   0   0   0   0   0   0   0   0   0   0   0   0   0   0   0   0   0   0   0   5 26 24 23 22 19 
  10   0   0   3   0   0   0   0   0   0   0   9   0   0   0   0   0   0   1   0   0   7   0   0   0   0   0   0   0   0   8   6   0   0   0   0   0   0   0   0   0   0   0   0   0   0   0   0   0   0   0   3 25 18 16 
   3   0   0  10   0   0   0   0   9   0   0   0   0   0   5   0   0   0   0   0   0   0   0   0   0   0   7   0   0   0   0   0   0   0   0   0   0   0   0   0   0   0   0   0   0   0   0   0   0   0   0   2 24 14 
   1   0   0   0   0   0   0   0   0   0   0   0   0   0   0   0   0   0   5   0   0   0   0   0   9   0   0   0   0   0   0   0   0   0   0   0   0   0   0   0   0   0   0   0   0   0   0   0   0   0   0   4 27 26 23 22 
   1   0   0   0   0   0   0   0   0   0   1   0   0   0   0   9   0   0   0   8  10   0   0   0   0   0   0   1   0   0   0   7   0   0   0   0   0   0   0   0   0   0   0   0   0   0   0   0   0   0   0   3 25 23 22 
   7   0   0   0   0   0   0   0   0   0   0   0   0   0   7   0   0   0   0   0   0   0   0   0   0   0   0   1   0   0   0   6   0   0   0   0   0   0   0   0   0   0   0   0   0   0   0   0   0   0   0   1 16 
   2   0   0   4   0   0   0   0   0   0   0   0   0   0   0   0   0   0   0   0   0   6   0   0   0   0   0   1   0   0   0   0   0   0   0   0   0   0   0   0   0   0   0   0   0   0   0   0   0   0   0   2 24 22 
   5   0   0   0   0   0   0   0   0   0   0   0   0   0   0   0   0   0   0   0   0   0   0   0   0   0   0   0   0   0   0   0   0   0   0   0   0   0   0   0   0   0   0   0   0   0   0   0   0   0   0   2 23 22 
   5   0   0   0   0   0   0   0   5   0   0   0   0   0   0   0   0   0   0   0   0   0   0   0   0   9   0   0   0   0   4   0   0   0   0   0   0   0   0   0   0   0   0   0   0   0   0   0   0   0   0   1 23 
   6   0   0   0   0   0   0   0   0   5   0   0   0   0   0   0   0   0   0   0   0   0   0   0   0   0   0   0   0   0   0   0   0   0   0   0   0   0   0   0   0   0   0   0   0   0   0   0   0   0   0   1 25 
  10   0   0   0   0   0   7   0   0   0   0   0   0   3   0   0   0   0   0   0   0   7   0  10   0   0   0   0   0   0   0   0   0   0   0   0   0   0   0   0   0   0   0   0   0   0   0   0   0   0   0   1 24 
   3   4   0   0   0   7   0   0   8   0   0   6   0   0   0   0   0   0   0   0   0   0   0   0   0   0   0   0   0   0   0   0   0   0   0   0   0   0   0   0   0   0   0   0   0   0   0   0   0   0   0   1 22 
   8   0   0   0   0   0   0   0   2   0   3   0   0   0   0  10   6   4   0   0   0   0   0   0   0   0   0   0   0   0   0   0   0   0   0   0   0   0   0   0   0   0   0   0   0   0   0   0   0   0   0   1 32
  10   0   0   0   9   0   0   0  10   0   0   0   0   0   0   0   0   0   0   0   0   0   0   0   0   0   0   0   1   0   0   0   0   0   0   0   0   0   0   0   0   0   0   0   0   0   0   0   0   0   0   1 32
   4   0   0   0   0   0   5   5   0   0   0   0   0   0   0   2   0   0   0   0   0   0   0   0   2   0   0   0   0   0   0   0   0   0   0   0   0   0   0   0   0   0   0   0   0   0   0   0   0   0   0   1 32
   9   9   0   0   0   0   0   0   0   0   0   0   0   0   0   0   0   0   0   0   0   0   0   0   0   0   0   0   0   0   3   0   0   0   0   0   0   0   0   0   0   0   0   0   0   0   0   0   0   0   0   1 32
   4   0   0   0   0   0   0   0   0   0   7   0   0   0   0   0   0   0   0   1   8   0   0   0   0   0   0   0   0   8   0   0   0   0   0   0   0   0   0   0   0   0   0   0   0   0   0   0   0   0   0   1 32
  10   0   0   0   0   0   0   0   0   8   9   0   0   0   0   0   0   0   8   0   0   0   0   0   4   0   0   0   0   0   0   0   0   0   0   0   0   0   0   0   0   0   0   0   0   0   0   0   0   0   0   1 32
   2   0   0   0   0   0   2   0   0   0   0   1  10   0   0   0   0   0   0   1   0   3   0   0   0   7   0   0   0   0   0   0   0   0   0   0   0   0   0   0   0   0   0   0   0   0   0   0   0   0   0   1 32
   2   0   0   0   4   0   0   0   0   0   0   0   0   0   0   8   0   0   0   0   5   9   0   1   0   0   0   0   1   0   0   8   0   0   0   0   0   0   0   0   0   0   0   0   0   0   0   0   0   0   0   1 32
   9   0   0   0   0   0   0   0   0   0  10   2   0   0   0   0   0   0   0   6   0   0   3   0   0   0   0   0   0   0   0   0   0   0   0   0   0   0   0   0   0   0   0   0   0   0   0   0   0   0   0   1 32
   8   0   0   0   0   0   0   0   0   0   0   0   0   0   0   0   0   0   0   0   7   8  10   0   0   7   0   0   0   0   0   0   0   0   0   0   0   0   0   0   0   0   0   0   0   0   0   0   0   0   0   1 32
   0   0   0   0   0   0   0   0   0   0   0   0   0   0   0   0   0   0   0   0   0   0   0   0   0   0   0   0   0   0   0   0   0   0   0   0   0   0   0   0   0   0   0   0   0   0   0   0   0   0   0   0 
